c "685440.clq"
p edge 203 2992
e 1 17
e 1 18
e 1 19
e 1 20
e 1 21
e 1 24
e 1 25
e 1 29
e 1 33
e 1 37
e 1 42
e 1 43
e 1 47
e 1 48
e 1 49
e 1 52
e 1 54
e 1 60
e 1 62
e 1 65
e 1 68
e 1 70
e 1 72
e 1 76
e 1 78
e 1 79
e 1 82
e 1 85
e 1 89
e 1 95
e 1 107
e 1 111
e 1 128
e 1 130
e 1 131
e 1 143
e 1 144
e 1 146
e 1 151
e 1 156
e 1 168
e 1 177
e 1 183
e 1 185
e 1 195
e 1 198
e 2 17
e 2 19
e 2 20
e 2 22
e 2 25
e 2 34
e 2 35
e 2 37
e 2 44
e 2 56
e 2 59
e 2 84
e 2 88
e 2 90
e 2 139
e 2 156
e 2 166
e 2 173
e 2 184
e 2 195
e 3 17
e 3 18
e 3 19
e 3 20
e 3 23
e 3 24
e 3 34
e 3 38
e 3 42
e 3 45
e 3 58
e 3 62
e 3 64
e 3 75
e 3 81
e 3 85
e 3 90
e 3 112
e 3 113
e 3 114
e 3 117
e 3 126
e 3 127
e 3 149
e 3 180
e 3 186
e 3 187
e 3 197
e 3 200
e 4 17
e 4 18
e 4 19
e 4 20
e 4 21
e 4 24
e 4 26
e 4 29
e 4 30
e 4 31
e 4 32
e 4 37
e 4 39
e 4 45
e 4 49
e 4 59
e 4 64
e 4 76
e 4 78
e 4 79
e 4 93
e 4 102
e 4 110
e 4 112
e 4 171
e 4 180
e 5 17
e 5 18
e 5 19
e 5 20
e 5 21
e 5 23
e 5 24
e 5 25
e 5 26
e 5 29
e 5 30
e 5 31
e 5 32
e 5 35
e 5 47
e 5 48
e 5 49
e 5 52
e 5 54
e 5 62
e 5 63
e 5 66
e 5 69
e 5 71
e 5 77
e 5 91
e 5 106
e 5 114
e 5 131
e 5 135
e 5 140
e 5 142
e 5 146
e 5 156
e 5 168
e 5 173
e 5 175
e 5 182
e 5 195
e 6 17
e 6 18
e 6 19
e 6 20
e 6 21
e 6 22
e 6 23
e 6 30
e 6 33
e 6 34
e 6 40
e 6 46
e 6 49
e 6 52
e 6 53
e 6 60
e 6 106
e 6 109
e 6 116
e 6 124
e 6 133
e 6 140
e 6 153
e 6 165
e 6 189
e 6 200
e 7 17
e 7 18
e 7 20
e 7 21
e 7 23
e 7 25
e 7 27
e 7 29
e 7 30
e 7 31
e 7 32
e 7 38
e 7 39
e 7 41
e 7 46
e 7 47
e 7 54
e 7 56
e 7 57
e 7 60
e 7 63
e 7 69
e 7 76
e 7 80
e 7 81
e 7 84
e 7 95
e 7 119
e 7 128
e 7 140
e 7 157
e 7 168
e 7 182
e 7 198
e 7 200
e 8 17
e 8 18
e 8 19
e 8 20
e 8 21
e 8 22
e 8 23
e 8 25
e 8 26
e 8 34
e 8 35
e 8 37
e 8 38
e 8 40
e 8 41
e 8 42
e 8 43
e 8 44
e 8 45
e 8 47
e 8 50
e 8 52
e 8 57
e 8 72
e 8 73
e 8 82
e 8 83
e 8 85
e 8 87
e 8 89
e 8 91
e 8 92
e 8 94
e 8 96
e 8 98
e 8 102
e 8 104
e 8 106
e 8 111
e 8 115
e 8 119
e 8 124
e 8 138
e 8 141
e 8 155
e 8 162
e 8 165
e 8 166
e 8 172
e 8 175
e 8 178
e 8 182
e 8 187
e 8 195
e 8 199
e 9 17
e 9 18
e 9 19
e 9 20
e 9 21
e 9 22
e 9 23
e 9 24
e 9 26
e 9 28
e 9 30
e 9 31
e 9 33
e 9 34
e 9 35
e 9 37
e 9 42
e 9 43
e 9 46
e 9 47
e 9 49
e 9 50
e 9 51
e 9 57
e 9 59
e 9 63
e 9 66
e 9 67
e 9 74
e 9 83
e 9 89
e 9 92
e 9 101
e 9 107
e 9 112
e 9 135
e 9 138
e 9 155
e 9 174
e 9 184
e 9 196
e 10 17
e 10 18
e 10 19
e 10 20
e 10 21
e 10 22
e 10 23
e 10 24
e 10 27
e 10 28
e 10 29
e 10 31
e 10 32
e 10 34
e 10 35
e 10 39
e 10 40
e 10 41
e 10 50
e 10 54
e 10 56
e 10 62
e 10 64
e 10 68
e 10 71
e 10 73
e 10 76
e 10 78
e 10 82
e 10 85
e 10 91
e 10 92
e 10 93
e 10 102
e 10 111
e 10 115
e 10 116
e 10 124
e 10 125
e 10 127
e 10 131
e 10 134
e 10 136
e 10 137
e 10 139
e 10 141
e 10 144
e 10 153
e 10 155
e 10 162
e 10 170
e 10 180
e 10 187
e 10 194
e 11 17
e 11 18
e 11 19
e 11 20
e 11 21
e 11 22
e 11 23
e 11 25
e 11 26
e 11 27
e 11 28
e 11 29
e 11 37
e 11 40
e 11 42
e 11 44
e 11 45
e 11 47
e 11 54
e 11 60
e 11 63
e 11 68
e 11 71
e 11 72
e 11 80
e 11 83
e 11 90
e 11 93
e 11 97
e 11 107
e 11 114
e 11 126
e 11 129
e 11 130
e 11 131
e 11 139
e 11 143
e 11 146
e 11 148
e 11 177
e 11 187
e 11 191
e 11 203
e 12 17
e 12 18
e 12 19
e 12 20
e 12 22
e 12 24
e 12 28
e 12 29
e 12 34
e 12 36
e 12 37
e 12 40
e 12 41
e 12 45
e 12 50
e 12 59
e 12 60
e 12 64
e 12 78
e 12 101
e 12 102
e 12 106
e 12 118
e 12 122
e 12 137
e 12 139
e 12 160
e 12 161
e 12 181
e 12 193
e 13 17
e 13 18
e 13 19
e 13 22
e 13 24
e 13 25
e 13 27
e 13 34
e 13 41
e 13 42
e 13 43
e 13 45
e 13 49
e 13 58
e 13 71
e 13 81
e 13 87
e 13 111
e 13 112
e 13 126
e 13 136
e 13 149
e 13 166
e 13 170
e 13 181
e 13 186
e 13 190
e 13 197
e 13 203
e 14 17
e 14 18
e 14 19
e 14 21
e 14 22
e 14 23
e 14 25
e 14 26
e 14 28
e 14 32
e 14 33
e 14 36
e 14 43
e 14 44
e 14 55
e 14 57
e 14 61
e 14 73
e 14 77
e 14 81
e 14 99
e 14 138
e 14 139
e 14 145
e 14 162
e 14 166
e 14 168
e 14 180
e 14 185
e 14 189
e 14 197
e 15 17
e 15 18
e 15 19
e 15 20
e 15 21
e 15 22
e 15 24
e 15 25
e 15 26
e 15 27
e 15 28
e 15 30
e 15 33
e 15 36
e 15 40
e 15 45
e 15 51
e 15 52
e 15 53
e 15 64
e 15 65
e 15 67
e 15 69
e 15 71
e 15 78
e 15 81
e 15 85
e 15 91
e 15 93
e 15 130
e 15 139
e 15 145
e 15 151
e 15 161
e 15 178
e 15 188
e 15 190
e 16 17
e 16 18
e 16 21
e 16 22
e 16 23
e 16 25
e 16 26
e 16 27
e 16 29
e 16 30
e 16 33
e 16 39
e 16 45
e 16 55
e 16 63
e 16 66
e 16 79
e 16 84
e 16 103
e 16 109
e 16 110
e 16 111
e 16 113
e 16 115
e 16 122
e 16 129
e 16 153
e 16 178
e 16 179
e 16 185
e 16 188
e 16 190
e 16 197
e 17 18
e 17 19
e 17 20
e 17 21
e 17 22
e 17 23
e 17 24
e 17 25
e 17 26
e 17 27
e 17 28
e 17 29
e 17 30
e 17 31
e 17 32
e 17 33
e 17 35
e 17 36
e 17 37
e 17 40
e 17 41
e 17 42
e 17 43
e 17 46
e 17 47
e 17 49
e 17 50
e 17 51
e 17 54
e 17 58
e 17 59
e 17 60
e 17 62
e 17 65
e 17 70
e 17 71
e 17 73
e 17 75
e 17 77
e 17 82
e 17 83
e 17 88
e 17 89
e 17 90
e 17 92
e 17 96
e 17 97
e 17 98
e 17 101
e 17 103
e 17 105
e 17 106
e 17 107
e 17 108
e 17 115
e 17 122
e 17 127
e 17 129
e 17 130
e 17 131
e 17 136
e 17 138
e 17 143
e 17 151
e 17 155
e 17 156
e 17 157
e 17 159
e 17 164
e 17 166
e 17 167
e 17 173
e 17 174
e 17 184
e 17 187
e 17 192
e 17 199
e 17 202
e 18 19
e 18 20
e 18 21
e 18 22
e 18 23
e 18 24
e 18 25
e 18 26
e 18 27
e 18 28
e 18 29
e 18 30
e 18 31
e 18 32
e 18 33
e 18 35
e 18 36
e 18 37
e 18 40
e 18 43
e 18 45
e 18 46
e 18 48
e 18 49
e 18 51
e 18 54
e 18 55
e 18 56
e 18 57
e 18 58
e 18 60
e 18 68
e 18 70
e 18 73
e 18 75
e 18 76
e 18 77
e 18 79
e 18 84
e 18 85
e 18 86
e 18 94
e 18 95
e 18 99
e 18 107
e 18 108
e 18 110
e 18 112
e 18 114
e 18 117
e 18 120
e 18 121
e 18 123
e 18 125
e 18 126
e 18 128
e 18 134
e 18 137
e 18 142
e 18 147
e 18 150
e 18 151
e 18 152
e 18 153
e 18 158
e 18 159
e 18 162
e 18 164
e 18 167
e 18 172
e 18 173
e 18 177
e 18 179
e 18 183
e 18 193
e 18 196
e 18 202
e 18 203
e 19 20
e 19 21
e 19 22
e 19 23
e 19 24
e 19 27
e 19 28
e 19 29
e 19 33
e 19 34
e 19 35
e 19 36
e 19 40
e 19 44
e 19 46
e 19 48
e 19 49
e 19 51
e 19 53
e 19 54
e 19 55
e 19 56
e 19 59
e 19 61
e 19 62
e 19 65
e 19 66
e 19 67
e 19 68
e 19 69
e 19 71
e 19 75
e 19 77
e 19 82
e 19 86
e 19 88
e 19 90
e 19 91
e 19 92
e 19 94
e 19 95
e 19 102
e 19 109
e 19 111
e 19 113
e 19 118
e 19 119
e 19 120
e 19 122
e 19 123
e 19 125
e 19 128
e 19 131
e 19 134
e 19 135
e 19 137
e 19 140
e 19 143
e 19 145
e 19 146
e 19 147
e 19 152
e 19 155
e 19 157
e 19 160
e 19 162
e 19 164
e 19 169
e 19 173
e 19 175
e 19 188
e 19 191
e 19 192
e 19 195
e 20 21
e 20 22
e 20 23
e 20 24
e 20 25
e 20 26
e 20 27
e 20 28
e 20 30
e 20 31
e 20 32
e 20 33
e 20 34
e 20 35
e 20 36
e 20 37
e 20 38
e 20 40
e 20 41
e 20 42
e 20 43
e 20 46
e 20 48
e 20 50
e 20 51
e 20 55
e 20 56
e 20 57
e 20 59
e 20 60
e 20 62
e 20 71
e 20 76
e 20 81
e 20 87
e 20 89
e 20 93
e 20 94
e 20 96
e 20 97
e 20 98
e 20 100
e 20 103
e 20 104
e 20 105
e 20 112
e 20 115
e 20 120
e 20 130
e 20 132
e 20 134
e 20 141
e 20 143
e 20 148
e 20 149
e 20 151
e 20 152
e 20 156
e 20 167
e 20 171
e 20 178
e 20 185
e 20 191
e 20 193
e 20 195
e 20 200
e 20 203
e 21 22
e 21 23
e 21 24
e 21 26
e 21 27
e 21 28
e 21 29
e 21 30
e 21 31
e 21 32
e 21 33
e 21 35
e 21 37
e 21 38
e 21 39
e 21 42
e 21 43
e 21 46
e 21 49
e 21 50
e 21 52
e 21 53
e 21 56
e 21 57
e 21 61
e 21 65
e 21 69
e 21 70
e 21 71
e 21 72
e 21 73
e 21 77
e 21 79
e 21 84
e 21 85
e 21 86
e 21 87
e 21 90
e 21 91
e 21 92
e 21 106
e 21 110
e 21 111
e 21 115
e 21 121
e 21 122
e 21 124
e 21 125
e 21 127
e 21 135
e 21 142
e 21 146
e 21 147
e 21 149
e 21 153
e 21 155
e 21 164
e 21 170
e 21 171
e 21 176
e 21 187
e 21 188
e 21 189
e 21 197
e 21 200
e 22 23
e 22 24
e 22 25
e 22 26
e 22 27
e 22 28
e 22 29
e 22 30
e 22 31
e 22 32
e 22 33
e 22 36
e 22 37
e 22 38
e 22 40
e 22 42
e 22 43
e 22 44
e 22 48
e 22 49
e 22 50
e 22 51
e 22 52
e 22 53
e 22 54
e 22 56
e 22 57
e 22 58
e 22 59
e 22 60
e 22 62
e 22 64
e 22 65
e 22 67
e 22 68
e 22 71
e 22 73
e 22 78
e 22 80
e 22 83
e 22 87
e 22 88
e 22 90
e 22 92
e 22 94
e 22 95
e 22 96
e 22 99
e 22 100
e 22 103
e 22 105
e 22 106
e 22 108
e 22 109
e 22 110
e 22 115
e 22 117
e 22 118
e 22 119
e 22 121
e 22 123
e 22 128
e 22 133
e 22 145
e 22 148
e 22 149
e 22 150
e 22 151
e 22 152
e 22 153
e 22 154
e 22 166
e 22 167
e 22 175
e 22 176
e 22 184
e 22 188
e 22 198
e 22 199
e 22 202
e 23 24
e 23 25
e 23 26
e 23 27
e 23 28
e 23 31
e 23 32
e 23 33
e 23 34
e 23 38
e 23 39
e 23 41
e 23 42
e 23 45
e 23 46
e 23 47
e 23 49
e 23 54
e 23 56
e 23 61
e 23 62
e 23 69
e 23 72
e 23 74
e 23 76
e 23 79
e 23 81
e 23 87
e 23 93
e 23 96
e 23 101
e 23 104
e 23 107
e 23 116
e 23 117
e 23 121
e 23 122
e 23 123
e 23 124
e 23 129
e 23 133
e 23 137
e 23 140
e 23 141
e 23 142
e 23 143
e 23 149
e 23 155
e 23 158
e 23 163
e 23 164
e 23 167
e 23 180
e 23 184
e 23 185
e 23 186
e 23 191
e 23 197
e 23 202
e 24 25
e 24 26
e 24 27
e 24 28
e 24 30
e 24 31
e 24 35
e 24 36
e 24 37
e 24 38
e 24 39
e 24 41
e 24 44
e 24 45
e 24 46
e 24 48
e 24 50
e 24 52
e 24 53
e 24 58
e 24 61
e 24 64
e 24 68
e 24 70
e 24 75
e 24 76
e 24 83
e 24 84
e 24 85
e 24 86
e 24 96
e 24 102
e 24 105
e 24 106
e 24 110
e 24 111
e 24 114
e 24 117
e 24 118
e 24 123
e 24 124
e 24 125
e 24 137
e 24 139
e 24 140
e 24 142
e 24 147
e 24 153
e 24 155
e 24 157
e 24 161
e 24 168
e 24 199
e 25 26
e 25 27
e 25 29
e 25 30
e 25 32
e 25 34
e 25 35
e 25 36
e 25 38
e 25 39
e 25 40
e 25 49
e 25 51
e 25 52
e 25 55
e 25 57
e 25 61
e 25 65
e 25 69
e 25 71
e 25 74
e 25 80
e 25 86
e 25 87
e 25 89
e 25 93
e 25 97
e 25 98
e 25 99
e 25 100
e 25 103
e 25 105
e 25 107
e 25 108
e 25 109
e 25 111
e 25 112
e 25 117
e 25 118
e 25 119
e 25 123
e 25 125
e 25 132
e 25 137
e 25 142
e 25 150
e 25 151
e 25 162
e 25 171
e 25 172
e 25 186
e 26 27
e 26 28
e 26 29
e 26 31
e 26 36
e 26 39
e 26 41
e 26 43
e 26 44
e 26 49
e 26 50
e 26 55
e 26 56
e 26 60
e 26 66
e 26 67
e 26 69
e 26 71
e 26 81
e 26 86
e 26 88
e 26 91
e 26 92
e 26 95
e 26 110
e 26 113
e 26 115
e 26 116
e 26 130
e 26 135
e 26 136
e 26 141
e 26 146
e 26 153
e 26 154
e 26 160
e 26 163
e 26 166
e 26 167
e 26 172
e 26 175
e 26 178
e 26 181
e 26 194
e 26 197
e 26 198
e 26 200
e 26 201
e 27 28
e 27 30
e 27 31
e 27 34
e 27 36
e 27 39
e 27 42
e 27 47
e 27 50
e 27 51
e 27 55
e 27 56
e 27 58
e 27 62
e 27 63
e 27 73
e 27 80
e 27 101
e 27 109
e 27 110
e 27 118
e 27 131
e 27 132
e 27 133
e 27 148
e 27 149
e 27 153
e 27 158
e 27 161
e 27 163
e 27 183
e 27 189
e 27 200
e 28 29
e 28 31
e 28 32
e 28 34
e 28 35
e 28 36
e 28 38
e 28 42
e 28 43
e 28 46
e 28 48
e 28 51
e 28 52
e 28 53
e 28 54
e 28 55
e 28 57
e 28 59
e 28 61
e 28 62
e 28 64
e 28 65
e 28 66
e 28 67
e 28 72
e 28 77
e 28 79
e 28 82
e 28 84
e 28 86
e 28 87
e 28 88
e 28 90
e 28 92
e 28 97
e 28 102
e 28 104
e 28 113
e 28 116
e 28 131
e 28 133
e 28 134
e 28 144
e 28 148
e 28 159
e 28 160
e 28 162
e 28 163
e 28 167
e 28 170
e 28 177
e 28 179
e 28 193
e 29 30
e 29 32
e 29 33
e 29 35
e 29 38
e 29 43
e 29 46
e 29 48
e 29 50
e 29 61
e 29 69
e 29 73
e 29 75
e 29 76
e 29 78
e 29 88
e 29 96
e 29 98
e 29 100
e 29 108
e 29 116
e 29 127
e 29 136
e 29 141
e 29 146
e 29 153
e 29 158
e 29 162
e 29 174
e 29 175
e 29 177
e 29 182
e 29 183
e 29 184
e 29 192
e 30 31
e 30 32
e 30 33
e 30 34
e 30 37
e 30 38
e 30 40
e 30 44
e 30 48
e 30 52
e 30 59
e 30 63
e 30 64
e 30 69
e 30 70
e 30 76
e 30 78
e 30 83
e 30 84
e 30 110
e 30 119
e 30 121
e 30 124
e 30 140
e 30 145
e 30 157
e 30 158
e 30 159
e 30 169
e 30 188
e 30 190
e 30 197
e 30 198
e 30 201
e 30 203
e 31 32
e 31 35
e 31 39
e 31 42
e 31 43
e 31 45
e 31 53
e 31 54
e 31 57
e 31 58
e 31 60
e 31 61
e 31 68
e 31 69
e 31 70
e 31 84
e 31 106
e 31 127
e 31 130
e 31 132
e 31 144
e 31 152
e 31 153
e 31 156
e 31 158
e 31 161
e 31 165
e 31 166
e 31 171
e 31 178
e 31 181
e 31 184
e 31 191
e 31 200
e 31 203
e 32 33
e 32 36
e 32 37
e 32 41
e 32 47
e 32 48
e 32 55
e 32 57
e 32 63
e 32 64
e 32 68
e 32 69
e 32 77
e 32 81
e 32 86
e 32 94
e 32 111
e 32 117
e 32 118
e 32 131
e 32 133
e 32 154
e 32 166
e 32 175
e 32 187
e 33 34
e 33 37
e 33 38
e 33 39
e 33 40
e 33 41
e 33 44
e 33 49
e 33 52
e 33 53
e 33 56
e 33 60
e 33 63
e 33 68
e 33 77
e 33 82
e 33 85
e 33 90
e 33 101
e 33 103
e 33 108
e 33 110
e 33 118
e 33 121
e 33 124
e 33 142
e 33 144
e 33 149
e 33 150
e 33 152
e 33 154
e 33 157
e 33 161
e 33 168
e 33 176
e 33 185
e 33 188
e 33 194
e 33 196
e 33 198
e 34 35
e 34 36
e 34 38
e 34 39
e 34 41
e 34 44
e 34 47
e 34 48
e 34 50
e 34 51
e 34 52
e 34 58
e 34 60
e 34 63
e 34 64
e 34 65
e 34 66
e 34 67
e 34 74
e 34 81
e 34 86
e 34 90
e 34 92
e 34 93
e 34 99
e 34 100
e 34 104
e 34 105
e 34 109
e 34 112
e 34 115
e 34 121
e 34 122
e 34 123
e 34 135
e 34 137
e 34 141
e 34 147
e 34 149
e 34 155
e 34 159
e 34 161
e 34 163
e 34 169
e 34 181
e 34 192
e 34 196
e 34 200
e 35 36
e 35 39
e 35 40
e 35 44
e 35 46
e 35 53
e 35 58
e 35 66
e 35 68
e 35 70
e 35 79
e 35 82
e 35 95
e 35 106
e 35 112
e 35 120
e 35 121
e 35 129
e 35 134
e 35 136
e 35 144
e 35 148
e 35 166
e 35 189
e 35 195
e 36 38
e 36 41
e 36 42
e 36 45
e 36 47
e 36 48
e 36 71
e 36 72
e 36 74
e 36 97
e 36 104
e 36 107
e 36 112
e 36 114
e 36 118
e 36 120
e 36 122
e 36 129
e 36 134
e 36 172
e 36 180
e 36 190
e 36 192
e 37 38
e 37 39
e 37 40
e 37 41
e 37 42
e 37 43
e 37 65
e 37 70
e 37 72
e 37 73
e 37 74
e 37 75
e 37 80
e 37 83
e 37 94
e 37 97
e 37 134
e 37 137
e 37 161
e 37 172
e 37 184
e 37 186
e 38 39
e 38 44
e 38 53
e 38 54
e 38 55
e 38 57
e 38 58
e 38 69
e 38 70
e 38 72
e 38 74
e 38 76
e 38 82
e 38 88
e 38 97
e 38 98
e 38 102
e 38 103
e 38 106
e 38 107
e 38 108
e 38 120
e 38 123
e 38 127
e 38 130
e 38 132
e 38 133
e 38 149
e 38 157
e 38 158
e 38 171
e 38 174
e 38 179
e 38 189
e 38 198
e 39 41
e 39 46
e 39 49
e 39 50
e 39 51
e 39 57
e 39 60
e 39 67
e 39 81
e 39 83
e 39 124
e 39 148
e 39 156
e 39 174
e 39 182
e 39 193
e 40 44
e 40 48
e 40 60
e 40 63
e 40 65
e 40 66
e 40 71
e 40 73
e 40 74
e 40 78
e 40 83
e 40 87
e 40 92
e 40 93
e 40 96
e 40 98
e 40 99
e 40 101
e 40 102
e 40 105
e 40 108
e 40 110
e 40 125
e 40 133
e 40 134
e 40 138
e 40 139
e 40 142
e 40 146
e 40 150
e 40 156
e 40 168
e 40 169
e 40 170
e 40 178
e 40 199
e 41 43
e 41 44
e 41 47
e 41 54
e 41 55
e 41 56
e 41 58
e 41 62
e 41 66
e 41 67
e 41 75
e 41 76
e 41 78
e 41 88
e 41 93
e 41 97
e 41 100
e 41 109
e 41 112
e 41 116
e 41 126
e 41 128
e 41 130
e 41 131
e 41 134
e 41 137
e 41 140
e 41 141
e 41 145
e 41 152
e 41 154
e 41 159
e 41 187
e 41 196
e 41 197
e 41 202
e 42 44
e 42 45
e 42 46
e 42 47
e 42 48
e 42 54
e 42 55
e 42 57
e 42 59
e 42 64
e 42 70
e 42 77
e 42 78
e 42 79
e 42 81
e 42 82
e 42 85
e 42 94
e 42 111
e 42 124
e 42 132
e 42 139
e 42 142
e 42 149
e 42 157
e 42 161
e 42 165
e 42 172
e 42 198
e 43 45
e 43 47
e 43 51
e 43 52
e 43 53
e 43 56
e 43 58
e 43 59
e 43 63
e 43 65
e 43 66
e 43 71
e 43 74
e 43 81
e 43 82
e 43 89
e 43 94
e 43 96
e 43 98
e 43 102
e 43 105
e 43 109
e 43 124
e 43 128
e 43 131
e 43 134
e 43 137
e 43 141
e 43 147
e 43 153
e 43 154
e 43 164
e 43 185
e 43 187
e 43 191
e 43 201
e 44 45
e 44 60
e 44 61
e 44 67
e 44 70
e 44 80
e 44 87
e 44 92
e 44 100
e 44 104
e 44 107
e 44 108
e 44 109
e 44 113
e 44 114
e 44 119
e 44 120
e 44 134
e 44 148
e 44 165
e 44 191
e 44 199
e 44 202
e 45 46
e 45 48
e 45 52
e 45 53
e 45 58
e 45 68
e 45 77
e 45 80
e 45 87
e 45 91
e 45 94
e 45 109
e 45 111
e 45 114
e 45 115
e 45 132
e 45 135
e 45 137
e 45 142
e 45 143
e 45 155
e 45 156
e 45 165
e 45 167
e 45 168
e 45 172
e 45 180
e 45 186
e 45 191
e 45 192
e 45 201
e 46 47
e 46 51
e 46 56
e 46 59
e 46 63
e 46 64
e 46 69
e 46 80
e 46 81
e 46 88
e 46 90
e 46 98
e 46 102
e 46 105
e 46 110
e 46 113
e 46 118
e 46 127
e 46 133
e 46 141
e 46 154
e 46 169
e 46 174
e 46 175
e 46 177
e 46 183
e 46 185
e 46 186
e 46 187
e 46 196
e 47 50
e 47 51
e 47 53
e 47 58
e 47 59
e 47 61
e 47 64
e 47 67
e 47 72
e 47 75
e 47 78
e 47 83
e 47 91
e 47 95
e 47 104
e 47 107
e 47 108
e 47 121
e 47 140
e 47 147
e 47 154
e 47 155
e 47 158
e 47 175
e 47 176
e 47 190
e 47 194
e 47 202
e 48 51
e 48 53
e 48 54
e 48 65
e 48 67
e 48 70
e 48 88
e 48 100
e 48 103
e 48 104
e 48 113
e 48 117
e 48 120
e 48 126
e 48 131
e 48 132
e 48 135
e 48 146
e 48 157
e 48 165
e 48 166
e 48 192
e 48 193
e 49 50
e 49 55
e 49 59
e 49 63
e 49 66
e 49 67
e 49 75
e 49 77
e 49 78
e 49 85
e 49 88
e 49 98
e 49 99
e 49 100
e 49 113
e 49 114
e 49 125
e 49 129
e 49 132
e 49 163
e 49 164
e 49 171
e 49 179
e 49 181
e 49 182
e 49 186
e 50 52
e 50 55
e 50 61
e 50 65
e 50 72
e 50 76
e 50 79
e 50 85
e 50 88
e 50 104
e 50 116
e 50 117
e 50 119
e 50 120
e 50 122
e 50 123
e 50 130
e 50 131
e 50 132
e 50 146
e 50 148
e 50 151
e 50 169
e 50 193
e 50 194
e 51 55
e 51 56
e 51 58
e 51 71
e 51 75
e 51 78
e 51 82
e 51 89
e 51 101
e 51 115
e 51 119
e 51 122
e 51 124
e 51 128
e 51 131
e 51 135
e 51 136
e 51 140
e 51 151
e 51 158
e 51 159
e 51 162
e 51 165
e 51 170
e 51 182
e 51 187
e 51 194
e 52 53
e 52 70
e 52 74
e 52 86
e 52 101
e 52 108
e 52 117
e 52 121
e 52 138
e 52 142
e 52 150
e 52 155
e 52 182
e 53 61
e 53 84
e 53 89
e 53 93
e 53 99
e 53 103
e 53 109
e 53 112
e 53 119
e 53 125
e 53 130
e 53 134
e 53 136
e 53 138
e 53 145
e 53 151
e 53 158
e 53 160
e 53 182
e 53 189
e 54 57
e 54 63
e 54 66
e 54 72
e 54 82
e 54 88
e 54 100
e 54 109
e 54 110
e 54 119
e 54 121
e 54 143
e 54 151
e 54 152
e 54 154
e 54 160
e 54 165
e 54 169
e 55 62
e 55 63
e 55 69
e 55 76
e 55 79
e 55 81
e 55 82
e 55 88
e 55 92
e 55 118
e 55 124
e 55 172
e 55 173
e 55 181
e 55 192
e 55 201
e 56 62
e 56 64
e 56 99
e 56 114
e 56 125
e 56 150
e 56 190
e 56 203
e 57 59
e 57 61
e 57 67
e 57 68
e 57 73
e 57 75
e 57 79
e 57 82
e 57 83
e 57 90
e 57 91
e 57 104
e 57 109
e 57 117
e 57 122
e 57 123
e 57 124
e 57 126
e 57 130
e 57 138
e 57 147
e 57 154
e 57 157
e 57 164
e 57 173
e 57 188
e 57 190
e 57 195
e 58 62
e 58 66
e 58 74
e 58 75
e 58 90
e 58 107
e 58 123
e 58 131
e 58 135
e 58 144
e 58 161
e 58 172
e 58 174
e 58 181
e 58 196
e 59 61
e 59 64
e 59 66
e 59 70
e 59 73
e 59 74
e 59 80
e 59 85
e 59 89
e 59 94
e 59 108
e 59 113
e 59 126
e 59 141
e 59 161
e 59 195
e 59 196
e 59 202
e 60 61
e 60 62
e 60 65
e 60 85
e 60 92
e 60 102
e 60 103
e 60 105
e 60 106
e 60 109
e 60 124
e 60 144
e 60 151
e 60 173
e 61 66
e 61 68
e 61 72
e 61 73
e 61 74
e 61 76
e 61 83
e 61 86
e 61 89
e 61 113
e 61 120
e 61 134
e 61 144
e 61 155
e 61 163
e 61 170
e 61 177
e 61 178
e 61 183
e 61 184
e 61 196
e 61 201
e 62 68
e 62 73
e 62 84
e 62 85
e 62 94
e 62 95
e 62 116
e 62 118
e 62 126
e 62 127
e 62 147
e 62 150
e 62 152
e 62 172
e 62 177
e 62 191
e 62 199
e 63 65
e 63 67
e 63 79
e 63 84
e 63 87
e 63 94
e 63 110
e 63 166
e 63 186
e 64 67
e 64 68
e 64 70
e 64 74
e 64 76
e 64 77
e 64 79
e 64 95
e 64 103
e 64 112
e 64 113
e 64 118
e 64 123
e 64 126
e 64 144
e 64 146
e 64 156
e 64 184
e 64 202
e 65 69
e 65 72
e 65 75
e 65 77
e 65 78
e 65 80
e 65 93
e 65 95
e 65 96
e 65 101
e 65 105
e 65 114
e 65 117
e 65 125
e 65 129
e 65 164
e 65 167
e 65 185
e 65 186
e 65 191
e 65 196
e 66 74
e 66 80
e 66 81
e 66 84
e 66 91
e 66 94
e 66 95
e 66 96
e 66 101
e 66 112
e 66 122
e 66 127
e 66 130
e 66 137
e 66 143
e 66 144
e 66 160
e 66 178
e 66 184
e 66 188
e 66 190
e 66 192
e 67 79
e 67 96
e 67 101
e 67 103
e 67 111
e 67 141
e 67 150
e 67 156
e 67 162
e 67 197
e 67 201
e 68 72
e 68 73
e 68 80
e 68 84
e 68 97
e 68 98
e 68 102
e 68 104
e 68 105
e 68 108
e 68 111
e 68 129
e 68 137
e 68 153
e 68 155
e 68 157
e 68 173
e 68 181
e 69 72
e 69 74
e 69 75
e 69 77
e 69 80
e 69 87
e 69 90
e 69 97
e 69 98
e 69 101
e 69 102
e 69 115
e 69 117
e 69 136
e 69 150
e 69 182
e 69 197
e 70 84
e 70 87
e 70 91
e 70 97
e 70 103
e 70 105
e 70 128
e 70 130
e 70 133
e 70 144
e 70 149
e 70 163
e 70 169
e 70 180
e 70 185
e 70 194
e 71 78
e 71 83
e 71 93
e 71 95
e 71 97
e 71 100
e 71 117
e 71 138
e 71 140
e 71 142
e 71 153
e 71 170
e 71 173
e 71 176
e 71 178
e 71 183
e 72 82
e 72 86
e 72 89
e 72 93
e 72 125
e 72 127
e 72 130
e 72 143
e 72 147
e 72 153
e 72 164
e 72 167
e 72 168
e 72 186
e 72 189
e 72 195
e 72 203
e 73 80
e 73 86
e 73 89
e 73 96
e 73 111
e 73 115
e 73 121
e 73 126
e 73 147
e 73 157
e 73 161
e 73 162
e 73 168
e 73 176
e 73 179
e 73 186
e 73 189
e 74 75
e 74 96
e 74 104
e 74 105
e 74 107
e 74 110
e 74 125
e 74 126
e 74 129
e 74 132
e 74 138
e 74 145
e 74 146
e 74 159
e 74 166
e 75 77
e 75 83
e 75 86
e 75 88
e 75 90
e 75 91
e 75 93
e 75 98
e 75 101
e 75 107
e 75 119
e 75 125
e 75 135
e 75 141
e 75 142
e 75 144
e 75 145
e 75 158
e 75 167
e 75 172
e 75 174
e 75 179
e 75 186
e 75 187
e 75 190
e 75 197
e 75 201
e 76 94
e 76 96
e 76 103
e 76 110
e 76 114
e 76 140
e 76 171
e 76 188
e 76 196
e 77 84
e 77 98
e 77 99
e 77 100
e 77 107
e 77 113
e 77 117
e 77 123
e 77 128
e 77 142
e 77 148
e 77 164
e 77 167
e 77 199
e 77 201
e 78 79
e 78 85
e 78 90
e 78 91
e 78 95
e 78 99
e 78 100
e 78 127
e 78 132
e 78 133
e 78 149
e 78 163
e 78 175
e 78 177
e 78 191
e 79 80
e 79 83
e 79 89
e 79 97
e 79 105
e 79 116
e 79 131
e 79 144
e 79 150
e 79 159
e 79 165
e 79 167
e 79 169
e 79 176
e 79 183
e 80 86
e 80 97
e 80 99
e 80 145
e 80 148
e 80 175
e 80 183
e 81 89
e 81 93
e 81 94
e 81 114
e 81 132
e 81 136
e 81 145
e 81 151
e 81 183
e 81 200
e 82 86
e 82 87
e 82 104
e 82 113
e 82 116
e 82 136
e 82 139
e 82 140
e 82 181
e 82 198
e 83 87
e 83 100
e 83 116
e 83 119
e 83 129
e 83 135
e 83 147
e 83 196
e 83 200
e 84 91
e 84 95
e 84 111
e 84 130
e 84 132
e 84 164
e 84 179
e 84 183
e 84 191
e 84 199
e 85 89
e 85 92
e 85 114
e 85 115
e 85 123
e 85 138
e 85 162
e 85 166
e 85 174
e 85 175
e 85 178
e 85 195
e 86 98
e 86 99
e 86 113
e 86 128
e 86 157
e 87 99
e 87 119
e 87 120
e 87 123
e 87 132
e 87 160
e 87 188
e 88 115
e 88 124
e 88 129
e 88 133
e 88 135
e 88 156
e 88 180
e 88 193
e 89 102
e 89 105
e 89 174
e 89 176
e 89 181
e 89 189
e 89 200
e 90 91
e 90 106
e 90 122
e 90 132
e 90 135
e 90 136
e 90 143
e 90 156
e 90 167
e 90 181
e 90 183
e 90 202
e 91 92
e 91 101
e 91 136
e 91 154
e 91 171
e 91 172
e 91 177
e 91 191
e 92 95
e 92 99
e 92 118
e 92 122
e 92 127
e 92 150
e 92 158
e 92 161
e 92 169
e 92 194
e 93 96
e 93 97
e 93 99
e 93 100
e 93 112
e 93 120
e 93 126
e 93 133
e 93 148
e 93 170
e 93 180
e 93 185
e 93 190
e 93 196
e 93 199
e 94 106
e 94 118
e 94 128
e 94 151
e 94 160
e 94 170
e 94 171
e 94 181
e 94 194
e 94 199
e 95 101
e 95 102
e 95 103
e 95 109
e 95 116
e 95 121
e 95 139
e 95 145
e 95 175
e 95 181
e 95 182
e 95 195
e 96 98
e 96 106
e 96 115
e 96 116
e 96 119
e 96 120
e 96 133
e 96 159
e 96 169
e 97 104
e 97 108
e 97 180
e 98 114
e 98 129
e 98 134
e 98 141
e 98 148
e 98 164
e 98 168
e 98 184
e 99 100
e 99 126
e 99 147
e 99 148
e 100 103
e 100 104
e 100 126
e 100 140
e 100 149
e 100 160
e 100 170
e 100 174
e 101 106
e 101 108
e 101 119
e 101 126
e 101 133
e 101 150
e 101 201
e 102 114
e 102 121
e 102 143
e 102 152
e 102 163
e 102 168
e 102 178
e 102 182
e 103 120
e 103 125
e 103 148
e 103 171
e 103 181
e 103 190
e 104 136
e 104 138
e 104 156
e 104 159
e 104 180
e 105 108
e 105 113
e 105 128
e 105 145
e 105 148
e 105 155
e 105 172
e 105 186
e 105 190
e 105 193
e 106 107
e 106 120
e 106 122
e 106 141
e 106 175
e 106 179
e 107 112
e 107 129
e 107 136
e 107 142
e 107 180
e 107 189
e 107 196
e 107 203
e 108 117
e 108 128
e 108 143
e 108 152
e 108 194
e 108 197
e 109 141
e 109 143
e 109 144
e 109 145
e 109 159
e 109 160
e 109 201
e 110 188
e 111 121
e 111 143
e 111 162
e 111 167
e 111 172
e 111 200
e 111 202
e 111 203
e 112 134
e 112 147
e 112 158
e 112 173
e 112 185
e 112 193
e 113 116
e 113 118
e 113 122
e 113 133
e 113 146
e 113 152
e 113 158
e 113 160
e 113 164
e 113 171
e 114 135
e 114 137
e 114 171
e 114 184
e 114 195
e 115 116
e 115 138
e 115 150
e 115 157
e 115 170
e 115 173
e 115 179
e 115 183
e 116 120
e 116 127
e 116 129
e 116 154
e 116 168
e 116 169
e 116 186
e 116 189
e 116 199
e 117 139
e 117 149
e 117 165
e 118 121
e 118 123
e 118 147
e 118 160
e 118 165
e 118 170
e 118 182
e 118 184
e 119 163
e 119 192
e 120 127
e 120 138
e 120 159
e 120 172
e 120 178
e 120 179
e 120 183
e 120 190
e 120 192
e 120 194
e 120 200
e 121 128
e 121 161
e 121 163
e 121 170
e 121 177
e 122 146
e 122 154
e 122 158
e 122 164
e 122 171
e 122 175
e 122 177
e 122 197
e 123 173
e 123 183
e 123 197
e 124 125
e 124 129
e 124 140
e 124 149
e 124 163
e 124 165
e 124 192
e 125 147
e 125 157
e 125 159
e 125 160
e 125 168
e 126 127
e 126 128
e 126 143
e 126 176
e 126 182
e 126 203
e 127 142
e 127 145
e 127 156
e 127 163
e 127 166
e 127 199
e 128 138
e 128 151
e 128 156
e 128 167
e 128 176
e 128 193
e 128 194
e 129 137
e 129 139
e 129 144
e 129 146
e 129 152
e 129 168
e 129 191
e 129 198
e 130 139
e 130 174
e 130 192
e 131 135
e 131 145
e 131 152
e 131 154
e 131 160
e 131 165
e 132 155
e 132 185
e 132 194
e 132 203
e 133 136
e 133 163
e 133 165
e 133 202
e 134 162
e 134 168
e 134 182
e 136 139
e 136 140
e 136 154
e 136 176
e 137 138
e 137 139
e 137 146
e 137 153
e 137 165
e 137 173
e 137 175
e 137 177
e 137 180
e 137 191
e 138 188
e 139 201
e 140 176
e 140 195
e 140 201
e 141 151
e 141 152
e 141 154
e 141 164
e 141 192
e 141 199
e 141 203
e 142 160
e 142 162
e 142 171
e 142 176
e 142 177
e 142 189
e 142 193
e 143 150
e 143 161
e 143 178
e 143 189
e 144 150
e 144 171
e 144 188
e 144 190
e 144 196
e 145 170
e 145 179
e 145 191
e 146 159
e 146 169
e 146 187
e 148 159
e 148 181
e 148 185
e 148 193
e 148 197
e 149 192
e 150 166
e 150 170
e 150 176
e 150 192
e 150 198
e 150 202
e 151 152
e 151 188
e 151 193
e 151 200
e 151 203
e 152 174
e 152 178
e 152 184
e 153 157
e 153 162
e 153 163
e 153 174
e 153 179
e 153 180
e 154 177
e 156 158
e 158 161
e 158 169
e 158 185
e 159 183
e 159 201
e 160 176
e 160 179
e 160 195
e 161 169
e 161 174
e 161 199
e 162 185
e 162 198
e 163 169
e 163 177
e 163 178
e 163 190
e 163 201
e 165 176
e 165 195
e 165 200
e 167 198
e 168 173
e 169 194
e 170 187
e 170 194
e 171 174
e 171 201
e 172 173
e 172 179
e 172 196
e 173 182
e 174 179
e 174 189
e 174 193
e 174 202
e 175 202
e 176 186
e 177 180
e 178 202
e 179 188
e 179 194
e 180 198
e 181 187
e 182 184
e 182 189
e 182 193
e 184 199
e 185 187
e 189 198
e 191 203
e 195 198
e 202 203
